(declare-fun var0 () String)
(assert (str.in.re var0 (re.++ (re.* (re.+ (str.to.re "ggg"))) (re.++ (re.+ (re.+ (str.to.re "f"))) (re.++ (re.+ (re.* (str.to.re "eee"))) (re.++ (re.+ (re.union (str.to.re "ccc") (str.to.re "ddd"))) (re.++ (re.union (re.+ (str.to.re "aa")) (re.* (str.to.re "bbb"))) (re.++ (re.union (re.+ (str.to.re "888")) (re.+ (str.to.re "999"))) (re.++ (re.union (re.union (str.to.re "55") (str.to.re "66")) (re.+ (str.to.re "777"))) (re.++ (re.+ (re.+ (str.to.re "44"))) (re.++ (re.union (re.* (str.to.re "1")) (re.union (str.to.re "222") (str.to.re "333"))) (re.+ (re.+ (str.to.re "00"))))))))))))))
(assert (str.in.re var0 (re.++ (re.union (re.+ (str.to.re "ee")) (re.+ (str.to.re "f"))) (re.++ (re.+ (re.union (str.to.re "c") (str.to.re "d"))) (re.++ (re.* (re.+ (str.to.re "b"))) (re.++ (re.union (re.+ (str.to.re "8")) (re.union (str.to.re "9") (str.to.re "aa"))) (re.++ (re.union (re.* (str.to.re "66")) (re.+ (str.to.re "77"))) (re.++ (re.* (re.* (str.to.re "5"))) (re.++ (re.+ (re.+ (str.to.re "444"))) (re.++ (re.+ (re.union (str.to.re "2") (str.to.re "333"))) (re.++ (re.+ (re.+ (str.to.re "111"))) (re.+ (re.+ (str.to.re "0"))))))))))))))
(assert (str.in.re var0 (re.++ (re.* (re.union (str.to.re "ggg") (str.to.re "h"))) (re.++ (re.union (re.* (str.to.re "e")) (re.+ (str.to.re "fff"))) (re.++ (re.union (re.* (str.to.re "c")) (re.* (str.to.re "ddd"))) (re.++ (re.* (re.+ (str.to.re "b"))) (re.++ (re.+ (re.+ (str.to.re "a"))) (re.++ (re.+ (re.union (str.to.re "888") (str.to.re "99"))) (re.++ (re.union (re.* (str.to.re "66")) (re.+ (str.to.re "777"))) (re.++ (re.+ (re.union (str.to.re "444") (str.to.re "555"))) (re.++ (re.* (re.union (str.to.re "22") (str.to.re "3"))) (re.union (re.+ (str.to.re "00")) (re.+ (str.to.re "11"))))))))))))))
(check-sat)